
Gurobi 9.5.0 (linux64) logging started Sat Nov  4 11:40:39 2023

Set parameter LogFile to value "/lustre1/scratch/348/vsc34888/JointResearch/05.Models/06.Benchmarking/E.Representative_days_based_on_Line_Benefits_OptModel/RTS24_ByStages_nc80/openStarNet_RTS24_ByStages_nc80.log"
Set parameter Method to value 2
Set parameter MIPFocus to value 1
Set parameter Presolve to value 2
Set parameter RINS to value 100
Set parameter MIPGap to value 0.01
Set parameter Threads to value 36
Set parameter TimeLimit to value 604800
Set parameter IterationLimit to value 760000000
Gurobi Optimizer version 9.5.0 build v9.5.0rc5 (linux64)
Thread count: 36 physical cores, 36 logical processors, using up to 36 threads
Optimize a model with 35603 rows, 20184 columns and 97003 nonzeros
Model fingerprint: 0x622db1eb
Variable types: 20145 continuous, 39 integer (39 binary)
Coefficient statistics:
  Matrix range     [1e-03, 2e+03]
  Objective range  [1e+00, 1e+00]
  Bounds range     [4e-04, 3e+00]
  RHS range        [4e-04, 3e+00]
Presolve removed 17363 rows and 8551 columns
Presolve time: 0.18s
Presolved: 18240 rows, 11633 columns, 63354 nonzeros
Variable types: 11594 continuous, 39 integer (39 binary)
Found heuristic solution: objective 147.8965801
Root relaxation presolved: 18240 rows, 11633 columns, 63354 nonzeros

Root barrier log...

Ordering time: 0.01s

Barrier statistics:
 Dense cols : 39
 AA' NZ     : 1.350e+05
 Factor NZ  : 4.366e+05 (roughly 16 MB of memory)
 Factor Ops : 1.306e+07 (less than 1 second per iteration)
 Threads    : 36

                  Objective                Residual
Iter       Primal          Dual         Primal    Dual     Compl     Time
   0   5.95928411e+05 -1.90675803e+08  4.41e+00 5.36e+02  1.47e+04     0s
   1   6.28822829e+04 -5.07495122e+07  4.09e-01 1.07e-08  1.88e+03     0s
   2   1.60709155e+04 -5.28189875e+06  1.14e-02 3.33e-09  1.47e+02     0s
   3   1.01632355e+04 -4.11273182e+05  6.43e-13 2.31e-10  1.14e+01     0s
   4   2.96115350e+03 -4.43184549e+04  5.47e-13 1.57e-11  1.28e+00     0s
   5   1.18602798e+03 -1.21041383e+04  3.85e-13 3.88e-12  3.61e-01     1s
   6   4.86190416e+02 -3.50828604e+03  2.29e-13 1.82e-12  1.08e-01     1s
   7   3.19554507e+02 -1.24309861e+03  2.52e-13 3.64e-12  4.24e-02     1s
   8   2.29053528e+02 -4.34111549e+02  1.81e-13 1.82e-12  1.80e-02     1s
   9   1.71990920e+02 -1.14563313e+02  1.76e-13 3.64e-12  7.77e-03     1s
  10   1.36827986e+02 -2.39264857e+01  6.51e-13 1.82e-12  4.36e-03     1s
  11   1.18950587e+02  6.87826043e+01  8.55e-13 3.64e-12  1.36e-03     1s
  12   1.05873128e+02  8.04228274e+01  5.81e-12 1.82e-12  6.90e-04     1s
  13   1.03483059e+02  8.68974087e+01  7.01e-12 1.82e-12  4.50e-04     1s
  14   1.02917242e+02  8.70105276e+01  7.15e-12 1.82e-12  4.31e-04     1s
  15   1.00796586e+02  8.95338329e+01  4.94e-12 1.82e-12  3.06e-04     1s
  16   9.84815753e+01  9.22387699e+01  6.91e-12 1.82e-12  1.69e-04     1s
  17   9.57231818e+01  9.30878832e+01  7.23e-12 1.82e-12  7.15e-05     1s
  18   9.50512364e+01  9.36965182e+01  1.16e-11 1.82e-12  3.67e-05     1s
  19   9.46339931e+01  9.39510066e+01  3.33e-11 1.82e-12  1.85e-05     1s
  20   9.43640391e+01  9.41491612e+01  1.23e-11 1.82e-12  5.83e-06     1s
  21   9.42941827e+01  9.41708218e+01  6.38e-12 1.82e-12  3.35e-06     1s
  22   9.42366365e+01  9.41832670e+01  2.51e-12 3.64e-12  1.45e-06     1s
  23   9.42175652e+01  9.42078987e+01  1.20e-12 3.64e-12  2.62e-07     1s
  24   9.42139837e+01  9.42122328e+01  1.50e-09 1.82e-12  4.75e-08     1s
  25   9.42133883e+01  9.42130055e+01  1.47e-09 3.64e-12  1.04e-08     1s
  26   9.42131429e+01  9.42131309e+01  4.03e-09 3.64e-12  3.26e-10     1s
  27   9.42131387e+01  9.42131387e+01  1.38e-10 3.64e-12  6.41e-15     1s

Barrier solved model in 27 iterations and 0.75 seconds (0.66 work units)
Optimal objective 9.42131387e+01


Root relaxation: objective 9.421314e+01, 1406 iterations, 0.49 seconds (0.32 work units)

    Nodes    |    Current Node    |     Objective Bounds      |     Work
 Expl Unexpl |  Obj  Depth IntInf | Incumbent    BestBd   Gap | It/Node Time

     0     0   94.21314    0   11  147.89658   94.21314  36.3%     -    0s
H    0     0                     121.0950775   94.21314  22.2%     -    1s
     0     0   96.86868    0   10  121.09508   96.86868  20.0%     -    1s
H    0     0                     107.3428801   96.86868  9.76%     -    1s
     0     0   97.97387    0    9  107.34288   97.97387  8.73%     -    1s
     0     0   98.41180    0   10  107.34288   98.41180  8.32%     -    1s
H    0     0                     107.1109748   98.41180  8.12%     -    1s
     0     0   98.49832    0   11  107.11097   98.49832  8.04%     -    2s
     0     0   98.51190    0   11  107.11097   98.51190  8.03%     -    2s
     0     0   98.51190    0   11  107.11097   98.51190  8.03%     -    2s
     0     0   98.93767    0    8  107.11097   98.93767  7.63%     -    2s
     0     0   98.93767    0    8  107.11097   98.93767  7.63%     -    2s
     0     0   98.93836    0    8  107.11097   98.93836  7.63%     -    2s
     0     0   98.93836    0    8  107.11097   98.93836  7.63%     -    3s
     0     0   98.93845    0    8  107.11097   98.93845  7.63%     -    3s
     0     2   98.93845    0    8  107.11097   98.93845  7.63%     -    5s
H  115    68                     106.3107471  102.34503  3.73%   260   11s
   151    59     cutoff    9       106.31075  103.34341  2.79%   240   15s
   289    74  105.60276   13    2  106.31075  103.34341  2.79%   208   20s

Cutting planes:
  Gomory: 5
  Implied bound: 2
  MIR: 495

Explored 597 nodes (107831 simplex iterations) in 21.50 seconds (26.95 work units)
Thread count was 36 (of 36 available processors)

Solution count 5: 106.311 107.111 107.343 ... 147.897

Optimal solution found (tolerance 1.00e-02)
Best objective 1.063107471214e+02, best bound 1.055714639678e+02, gap 0.6954%

Gurobi 9.5.0 (linux64) logging started Sat Nov  4 11:41:05 2023

Set parameter LogFile to value "/lustre1/scratch/348/vsc34888/JointResearch/05.Models/06.Benchmarking/E.Representative_days_based_on_Line_Benefits_OptModel/RTS24_ByStages_nc80/openStarNet_RTS24_ByStages_nc80.log"
Set parameter Method to value 2
Set parameter MIPFocus to value 1
Set parameter Presolve to value 2
Set parameter RINS to value 100
Set parameter MIPGap to value 0.01
Set parameter Threads to value 36
Set parameter TimeLimit to value 604800
Set parameter IterationLimit to value 760000000
No parameters matching 'relax_integrality' found
Gurobi Optimizer version 9.5.0 build v9.5.0rc5 (linux64)
Thread count: 36 physical cores, 36 logical processors, using up to 36 threads
Optimize a model with 35603 rows, 20145 columns and 84484 nonzeros
Model fingerprint: 0x7eb77b67
Coefficient statistics:
  Matrix range     [1e-03, 2e+03]
  Objective range  [1e+00, 1e+00]
  Bounds range     [4e-04, 3e+00]
  RHS range        [4e-04, 3e+01]
Presolve removed 28164 rows and 9353 columns
Presolve time: 0.04s
Presolved: 7439 rows, 10952 columns, 27270 nonzeros

Ordering time: 0.00s

Barrier statistics:
 AA' NZ     : 1.904e+04
 Factor NZ  : 8.142e+04 (roughly 7 MB of memory)
 Factor Ops : 1.236e+06 (less than 1 second per iteration)
 Threads    : 36

                  Objective                Residual
Iter       Primal          Dual         Primal    Dual     Compl     Time
   0   1.13963055e+06 -1.20755682e+09  3.81e+00 1.22e+03  1.27e+05     0s
   1   9.64809310e+04 -1.82050878e+08  2.90e-01 1.01e-10  1.25e+04     0s
   2   4.23612635e+04 -2.04492663e+07  7.66e-02 1.07e-10  1.29e+03     0s
   3   2.41609349e+04 -1.83063382e+06  6.54e-04 8.73e-11  9.92e+01     0s
   4   1.48945214e+04 -2.71965251e+05  6.21e-05 8.73e-11  1.53e+01     0s
   5   6.39519345e+03 -6.88067704e+04  1.27e-05 2.91e-11  4.01e+00     0s
   6   3.18501452e+03 -2.23830191e+04  4.23e-06 2.91e-11  1.36e+00     0s
   7   1.13528526e+03 -6.12395972e+03  7.90e-07 2.91e-11  3.87e-01     0s
   8   3.97837520e+02 -1.94563399e+03  9.47e-08 2.91e-11  1.25e-01     0s
   9   2.53484846e+02 -5.68921309e+02  4.03e-08 1.46e-11  4.38e-02     0s
  10   1.83394353e+02 -1.20184844e+02  1.79e-08 1.46e-11  1.62e-02     0s
  11   1.40615740e+02  1.05453467e+01  6.93e-09 2.91e-11  6.93e-03     0s
  12   1.22475013e+02  6.25919952e+01  2.95e-09 2.91e-11  3.19e-03     0s
  13   1.14347071e+02  8.83727473e+01  1.33e-09 2.91e-11  1.38e-03     0s
  14   1.10061963e+02  9.84261711e+01  5.80e-10 1.46e-11  6.20e-04     0s
  15   1.08122802e+02  1.02011157e+02  2.64e-10 2.91e-11  3.26e-04     0s
  16   1.06757181e+02  1.05312681e+02  5.73e-11 1.46e-11  7.70e-05     0s
  17   1.06505337e+02  1.06053029e+02  2.43e-11 1.46e-11  2.41e-05     0s
  18   1.06345258e+02  1.06270782e+02  4.14e-12 1.46e-11  3.97e-06     0s
  19   1.06311283e+02  1.06310411e+02  3.54e-11 7.28e-12  4.65e-08     0s
  20   1.06310748e+02  1.06310747e+02  1.08e-10 2.91e-11  5.04e-11     0s
  21   1.06310747e+02  1.06310747e+02  1.06e-09 1.46e-11  5.11e-16     0s

Barrier solved model in 21 iterations and 0.18 seconds (0.11 work units)
Optimal objective 1.06310747e+02

Crossover log...

     910 DPushes remaining with DInf 0.0000000e+00                 0s
       0 DPushes remaining with DInf 0.0000000e+00                 0s

     588 PPushes remaining with PInf 0.0000000e+00                 0s
       0 PPushes remaining with PInf 0.0000000e+00                 0s

  Push phase complete: Pinf 0.0000000e+00, Dinf 3.6353745e-12      0s

Iteration    Objective       Primal Inf.    Dual Inf.      Time
     675    1.0631075e+02   0.000000e+00   0.000000e+00      0s

Use crossover to convert LP symmetric solution to basic solution...
Crossover log...

       0 DPushes remaining with DInf 0.0000000e+00                 0s

     343 PPushes remaining with PInf 0.0000000e+00                 0s
       0 PPushes remaining with PInf 0.0000000e+00                 0s

  Push phase complete: Pinf 0.0000000e+00, Dinf 1.3900070e-12      0s

Iteration    Objective       Primal Inf.    Dual Inf.      Time
    1023    1.0631075e+02   0.000000e+00   0.000000e+00      0s

Solved in 1023 iterations and 0.26 seconds (0.15 work units)
Optimal objective  1.063107471e+02

Gurobi 9.5.0 (linux64) logging started Sat Nov  4 12:09:18 2023

Set parameter LogFile to value "/lustre1/scratch/348/vsc34888/JointResearch/05.Models/06.Benchmarking/E.Representative_days_based_on_Line_Benefits_OptModel/RTS24_ByStages_nc80/openStarNet_RTS24_ByStages_nc80.log"
Set parameter Method to value 2
Set parameter MIPFocus to value 1
Set parameter Presolve to value 2
Set parameter RINS to value 100
Set parameter MIPGap to value 0.01
Set parameter Threads to value 36
Set parameter TimeLimit to value 604800
Set parameter IterationLimit to value 760000000
Gurobi Optimizer version 9.5.0 build v9.5.0rc5 (linux64)
Thread count: 36 physical cores, 36 logical processors, using up to 36 threads
Optimize a model with 35603 rows, 20184 columns and 97003 nonzeros
Model fingerprint: 0x92e628be
Variable types: 20145 continuous, 39 integer (39 binary)
Coefficient statistics:
  Matrix range     [1e-03, 2e+03]
  Objective range  [1e+00, 1e+00]
  Bounds range     [4e-04, 3e+00]
  RHS range        [4e-04, 3e+00]
Presolve removed 17363 rows and 8551 columns
Presolve time: 0.18s
Presolved: 18240 rows, 11633 columns, 63354 nonzeros
Variable types: 11594 continuous, 39 integer (39 binary)
Found heuristic solution: objective 147.8965801
Root relaxation presolved: 18240 rows, 11633 columns, 63354 nonzeros

Root barrier log...

Ordering time: 0.01s

Barrier statistics:
 Dense cols : 39
 AA' NZ     : 1.350e+05
 Factor NZ  : 4.524e+05 (roughly 16 MB of memory)
 Factor Ops : 1.424e+07 (less than 1 second per iteration)
 Threads    : 36

                  Objective                Residual
Iter       Primal          Dual         Primal    Dual     Compl     Time
   0   5.95928411e+05 -1.90675803e+08  4.41e+00 5.36e+02  1.47e+04     0s
   1   6.28822829e+04 -5.07495122e+07  4.09e-01 1.07e-08  1.88e+03     0s
   2   1.60709155e+04 -5.28189875e+06  1.14e-02 3.21e-09  1.47e+02     0s
   3   1.01632355e+04 -4.11273182e+05  6.31e-13 2.41e-10  1.14e+01     1s
   4   2.96115350e+03 -4.43184549e+04  6.81e-13 1.84e-11  1.28e+00     1s
   5   1.18602798e+03 -1.21041383e+04  3.80e-13 4.48e-12  3.61e-01     1s
   6   4.86190416e+02 -3.50828604e+03  2.83e-13 3.64e-12  1.08e-01     1s
   7   3.19554507e+02 -1.24309861e+03  2.43e-13 1.82e-12  4.24e-02     1s
   8   2.29053528e+02 -4.34111549e+02  1.87e-13 1.82e-12  1.80e-02     1s
   9   1.71990920e+02 -1.14563313e+02  2.10e-13 1.82e-12  7.77e-03     1s
  10   1.36827986e+02 -2.39264857e+01  4.62e-13 1.82e-12  4.36e-03     1s
  11   1.18950587e+02  6.87826043e+01  5.78e-13 3.64e-12  1.36e-03     1s
  12   1.05873128e+02  8.04228274e+01  1.91e-12 1.82e-12  6.90e-04     1s
  13   1.03483059e+02  8.68974087e+01  3.09e-12 1.82e-12  4.50e-04     1s
  14   1.02917242e+02  8.70105276e+01  3.15e-12 1.82e-12  4.31e-04     1s
  15   1.00796586e+02  8.95338329e+01  2.22e-12 1.82e-12  3.06e-04     1s
  16   9.84815754e+01  9.22387698e+01  5.57e-12 3.64e-12  1.69e-04     1s
  17   9.57231820e+01  9.30878831e+01  6.80e-12 1.82e-12  7.15e-05     1s
  18   9.50512366e+01  9.36965181e+01  7.20e-12 1.82e-12  3.67e-05     1s
  19   9.46339932e+01  9.39510066e+01  1.92e-11 1.82e-12  1.85e-05     1s
  20   9.43640391e+01  9.41491611e+01  6.99e-12 1.82e-12  5.83e-06     1s
  21   9.42941827e+01  9.41708218e+01  3.63e-12 1.82e-12  3.35e-06     1s
  22   9.42366362e+01  9.41832670e+01  7.57e-12 1.82e-12  1.45e-06     1s
  23   9.42175654e+01  9.42078987e+01  5.61e-09 1.82e-12  2.62e-07     1s
  24   9.42139837e+01  9.42122327e+01  1.50e-09 1.82e-12  4.75e-08     1s
  25   9.42133884e+01  9.42130055e+01  1.47e-09 3.64e-12  1.04e-08     1s
  26   9.42131430e+01  9.42131309e+01  1.99e-09 3.64e-12  3.26e-10     1s
  27   9.42131387e+01  9.42131387e+01  1.64e-10 3.64e-12  1.33e-14     1s

Barrier solved model in 27 iterations and 0.80 seconds (0.66 work units)
Optimal objective 9.42131387e+01


Root relaxation: objective 9.421314e+01, 1407 iterations, 0.55 seconds (0.32 work units)

    Nodes    |    Current Node    |     Objective Bounds      |     Work
 Expl Unexpl |  Obj  Depth IntInf | Incumbent    BestBd   Gap | It/Node Time

     0     0   94.21314    0   11  147.89658   94.21314  36.3%     -    1s
H    0     0                     121.0950775   94.21314  22.2%     -    1s
     0     0   98.81741    0   10  121.09508   98.81741  18.4%     -    1s
H    0     0                     108.6816717   98.81741  9.08%     -    1s
     0     0   98.89344    0   10  108.68167   98.89344  9.01%     -    1s
H    0     0                     107.1109748   98.89344  7.67%     -    2s
     0     0   99.13392    0   10  107.11097   99.13392  7.45%     -    2s
     0     0   99.13392    0   10  107.11097   99.13392  7.45%     -    2s
     0     0   99.20287    0   11  107.11097   99.20287  7.38%     -    2s
     0     0   99.20885    0   11  107.11097   99.20885  7.38%     -    2s
     0     0   99.20885    0   11  107.11097   99.20885  7.38%     -    2s
     0     0   99.22153    0   11  107.11097   99.22153  7.37%     -    3s
     0     0   99.22153    0   11  107.11097   99.22153  7.37%     -    3s
H    0     0                     106.3107471   99.22153  6.67%     -    8s
     0     2   99.22153    0   11  106.31075   99.22153  6.67%     -    8s
   107    56     cutoff    8       106.31075  103.35746  2.78%   238   17s
   143    64  104.48140    9    3  106.31075  103.36168  2.77%   226   25s
   443    37  106.15487   11    5  106.31075  104.74346  1.47%   183   35s

Cutting planes:
  Gomory: 3
  MIR: 634
  Relax-and-lift: 1

Explored 553 nodes (95715 simplex iterations) in 35.67 seconds (37.97 work units)
Thread count was 36 (of 36 available processors)

Solution count 5: 106.311 107.111 108.682 ... 147.897

Optimal solution found (tolerance 1.00e-02)
Best objective 1.063107471214e+02, best bound 1.063107471214e+02, gap 0.0000%

Gurobi 9.5.0 (linux64) logging started Sat Nov  4 12:09:58 2023

Set parameter LogFile to value "/lustre1/scratch/348/vsc34888/JointResearch/05.Models/06.Benchmarking/E.Representative_days_based_on_Line_Benefits_OptModel/RTS24_ByStages_nc80/openStarNet_RTS24_ByStages_nc80.log"
Set parameter Method to value 2
Set parameter MIPFocus to value 1
Set parameter Presolve to value 2
Set parameter RINS to value 100
Set parameter MIPGap to value 0.01
Set parameter Threads to value 36
Set parameter TimeLimit to value 604800
Set parameter IterationLimit to value 760000000
No parameters matching 'relax_integrality' found
Gurobi Optimizer version 9.5.0 build v9.5.0rc5 (linux64)
Thread count: 36 physical cores, 36 logical processors, using up to 36 threads
Optimize a model with 35603 rows, 20145 columns and 84484 nonzeros
Model fingerprint: 0x3aadb87a
Coefficient statistics:
  Matrix range     [1e-03, 2e+03]
  Objective range  [1e+00, 1e+00]
  Bounds range     [4e-04, 3e+00]
  RHS range        [4e-04, 3e+01]
Presolve removed 28164 rows and 9353 columns
Presolve time: 0.04s
Presolved: 7439 rows, 10952 columns, 27270 nonzeros

Ordering time: 0.00s

Barrier statistics:
 AA' NZ     : 1.922e+04
 Factor NZ  : 8.153e+04 (roughly 7 MB of memory)
 Factor Ops : 1.238e+06 (less than 1 second per iteration)
 Threads    : 36

                  Objective                Residual
Iter       Primal          Dual         Primal    Dual     Compl     Time
   0   6.58236127e+05 -5.82828351e+08  5.74e+00 2.69e+03  6.11e+04     0s
   1   7.40811385e+04 -8.80882689e+07  4.76e-01 4.59e-11  6.13e+03     0s
   2   3.91932657e+04 -8.69045246e+06  1.33e-01 4.37e-11  5.71e+02     0s
   3   2.13846471e+04 -8.81565990e+05  5.47e-03 2.75e-11  4.88e+01     0s
   4   7.73465074e+03 -1.01792040e+05  6.09e-04 9.30e-10  5.84e+00     0s
   5   3.92558991e+03 -2.60367593e+04  1.99e-04 2.20e-10  1.60e+00     0s
   6   1.70938707e+03 -8.01307158e+03  5.85e-05 6.39e-11  5.18e-01     0s
   7   5.19914331e+02 -2.11804950e+03  7.71e-06 1.75e-11  1.41e-01     0s
   8   3.29912988e+02 -6.05981775e+02  3.39e-06 5.37e-12  4.98e-02     0s
   9   2.38183821e+02 -2.59686030e+02  1.86e-06 1.46e-11  2.65e-02     0s
  10   1.48497286e+02 -2.73041782e+00  4.75e-07 3.64e-12  8.05e-03     0s
  11   1.23547092e+02  7.10348333e+01  1.73e-07 3.64e-12  2.80e-03     0s
  12   1.13446702e+02  9.36355179e+01  6.41e-08 1.82e-12  1.06e-03     0s
  13   1.09455556e+02  1.00835759e+02  2.64e-08 1.46e-11  4.59e-04     0s
  14   1.07869163e+02  1.04350939e+02  1.24e-08 7.28e-12  1.87e-04     0s
  15   1.06895885e+02  1.05790824e+02  4.57e-09 1.46e-11  5.89e-05     0s
  16   1.06429240e+02  1.06183394e+02  8.64e-10 7.28e-12  1.31e-05     0s
  17   1.06362395e+02  1.06284317e+02  3.71e-10 7.28e-12  4.16e-06     0s
  18   1.06311277e+02  1.06310298e+02  8.76e-12 1.46e-11  5.22e-08     0s
  19   1.06310748e+02  1.06310747e+02  2.24e-12 2.91e-11  5.23e-11     0s
  20   1.06310747e+02  1.06310747e+02  1.18e-12 3.64e-12  5.23e-14     0s

Barrier solved model in 20 iterations and 0.17 seconds (0.11 work units)
Optimal objective 1.06310747e+02

Crossover log...

     861 DPushes remaining with DInf 0.0000000e+00                 0s
       0 DPushes remaining with DInf 0.0000000e+00                 0s

     609 PPushes remaining with PInf 0.0000000e+00                 0s
       0 PPushes remaining with PInf 0.0000000e+00                 0s

  Push phase complete: Pinf 0.0000000e+00, Dinf 3.4355925e-12      0s

Iteration    Objective       Primal Inf.    Dual Inf.      Time
     617    1.0631075e+02   0.000000e+00   0.000000e+00      0s

Use crossover to convert LP symmetric solution to basic solution...
Crossover log...

       0 DPushes remaining with DInf 0.0000000e+00                 0s

     328 PPushes remaining with PInf 0.0000000e+00                 0s
       0 PPushes remaining with PInf 0.0000000e+00                 0s

  Push phase complete: Pinf 0.0000000e+00, Dinf 1.8455200e-12      0s

Iteration    Objective       Primal Inf.    Dual Inf.      Time
     951    1.0631075e+02   0.000000e+00   0.000000e+00      0s

Solved in 951 iterations and 0.25 seconds (0.15 work units)
Optimal objective  1.063107471e+02
